language ESSENCE' 1.0
letting lastdx=103
letting cage be [
[40,11,12,11,11,10,11,9,11,9,10],
[30,5,4,5,3,6,3,6,2,7,2],
[15,4,10,4,9,0,0, 0,0, 0,0],
[8,7,11,8,11,0,0, 0,0, 0,0],
[16,1,6,0,0, 0,0, 0,0, 0,0],
[15,2,7,1,7,0,0, 0,0, 0,0],
[8,13,9,0,0, 0,0, 0,0, 0,0],
[39,12,3,12,2,13,2,13,1,12,1],
[18,2,4,2,3,1,3,0,0, 0,0],
[7,15,6,0,0, 0,0, 0,0, 0,0],
[4,1,15,2,15,0,0, 0,0, 0,0],
[31,15,9,14,9,0,0, 0,0, 0,0],
[1,5,16,0,0, 0,0, 0,0, 0,0],
[14,1,14,1,13,0,0, 0,0, 0,0],
[6,6,16,0,0, 0,0, 0,0, 0,0],
[43,16,16,15,16,15,15,15,14,15,13],
[5,5,7,0,0, 0,0, 0,0, 0,0],
[2,15,10,0,0, 0,0, 0,0, 0,0],
[9,5,11,0,0, 0,0, 0,0, 0,0],
[34,12,16,11,16,11,15,0,0, 0,0],
[15,4,7,0,0, 0,0, 0,0, 0,0],
[34,4,4,4,5,5,5,5,6,0,0],
[5,12,14,12,15,0,0, 0,0, 0,0],
[8,7,6,0,0, 0,0, 0,0, 0,0],
[3,16,9,0,0, 0,0, 0,0, 0,0],
[12,7,3,8,3,0,0, 0,0, 0,0],
[11,8,2,0,0, 0,0, 0,0, 0,0],
[33,10,4,10,5,9,5,0,0, 0,0],
[15,13,8,0,0, 0,0, 0,0, 0,0],
[27,4,6,3,6,3,7,3,8,0,0],
[3,9,12,0,0, 0,0, 0,0, 0,0],
[43,9,7,9,6,8,6,8,5,8,4],
[32,4,14,4,15,4,16,3,16,0,0],
[1,3,12,0,0, 0,0, 0,0, 0,0],
[20,8,14,7,14,7,15,0,0, 0,0],
[9,3,10,0,0, 0,0, 0,0, 0,0],
[28,14,4,14,3,14,2,15,2,16,2],
[16,2,5,2,6,0,0, 0,0, 0,0],
[57,8,16,7,16,9,16,9,15,8,15],
[25,7,9,8,9,0,0, 0,0, 0,0],
[10,1,9,0,0, 0,0, 0,0, 0,0],
[3,13,5,0,0, 0,0, 0,0, 0,0],
[11,10,16,10,15,0,0, 0,0, 0,0],
[9,15,12,0,0, 0,0, 0,0, 0,0],
[59,5,15,5,14,5,13,5,12,4,12],
[35,16,5,16,4,16,3,15,3,0,0],
[7,11,9,0,0, 0,0, 0,0, 0,0],
[14,15,5,15,4,0,0, 0,0, 0,0],
[14,6,15,6,14,0,0, 0,0, 0,0],
[19,1,5,1,4,0,0, 0,0, 0,0],
[4,13,12,0,0, 0,0, 0,0, 0,0],
[43,8,7,8,8,9,8,9,9,10,9],
[13,12,6,0,0, 0,0, 0,0, 0,0],
[34,12,5,11,5,11,4,11,3,0,0],
[35,13,10,13,11,12,11,12,10,12,9],
[22,13,16,14,16,0,0, 0,0, 0,0],
[16,9,1,8,1,7,1,0,0, 0,0],
[7,6,12,0,0, 0,0, 0,0, 0,0],
[20,16,7,16,6,15,7,0,0, 0,0],
[23,13,4,12,4,13,3,0,0, 0,0],
[39,7,10,8,10,6,10,6,11,0,0],
[15,11,8,10,8,10,7,11,7,0,0],
[12,7,7,0,0, 0,0, 0,0, 0,0],
[8,4,11,0,0, 0,0, 0,0, 0,0],
[6,16,15,0,0, 0,0, 0,0, 0,0],
[46,1,12,1,11,2,11,3,11,0,0],
[45,14,1,15,1,16,1,0,0, 0,0],
[28,9,4,9,3,10,3,0,0, 0,0],
[8,2,2,0,0, 0,0, 0,0, 0,0],
[13,10,10,11,10,0,0, 0,0, 0,0],
[5,12,8,0,0, 0,0, 0,0, 0,0],
[13,7,8,0,0, 0,0, 0,0, 0,0],
[13,5,10,5,9,6,9,0,0, 0,0],
[27,15,11,14,11,14,10,0,0, 0,0],
[14,16,14,16,13,0,0, 0,0, 0,0],
[34,16,12,16,11,16,10,0,0, 0,0],
[15,14,6,14,5,0,0, 0,0, 0,0],
[27,2,13,2,12,0,0, 0,0, 0,0],
[28,2,10,1,10,2,9,3,9,0,0],
[18,11,13,11,14,10,14,0,0, 0,0],
[44,11,1,11,2,10,2,9,2,10,1],
[15,1,2,0,0, 0,0, 0,0, 0,0],
[39,14,7,14,8,15,8,16,8,0,0],
[11,7,12,7,13,6,13,0,0, 0,0],
[4,4,13,0,0, 0,0, 0,0, 0,0],
[20,11,6,10,6,0,0, 0,0, 0,0],
[13,14,13,14,12,0,0, 0,0, 0,0],
[10,12,7,0,0, 0,0, 0,0, 0,0],
[48,6,7,6,8,5,8,4,8,0,0],
[16,4,3,0,0, 0,0, 0,0, 0,0],
[15,6,1,5,1,0,0, 0,0, 0,0],
[3,1,1,0,0, 0,0, 0,0, 0,0],
[11,1,8,2,8,0,0, 0,0, 0,0],
[16,1,16,2,16,0,0, 0,0, 0,0],
[10,2,1,0,0, 0,0, 0,0, 0,0],
[53,2,14,3,14,3,13,3,15,0,0],
[32,3,1,4,1,4,2,5,2,0,0],
[37,3,2,3,3,3,4,3,5,0,0],
[29,6,4,7,4,0,0, 0,0, 0,0],
[22,6,5,6,6,7,5,0,0, 0,0],
[25,8,12,8,13,0,0, 0,0, 0,0],
[46,12,12,12,13,13,13,13,14,0,0],
[22,13,6,13,7,0,0, 0,0, 0,0],
[31,13,15,14,15,14,14,0,0, 0,0]
]
